p cnf 805
-13 -251
-14 -254
-15 -257
-16 -260
-17 -263
-18 -266
-19 -269
-20 -272
-21 -275
-22 -278
-23 -281
-24 -284
-25 285
-26 286
-27 287
-28 288
-29 289
-30 290
-31 -14
-31 -15
14 15 31
-32 -16
-32 -17
16 17 32
-33 -18
-33 -19
18 19 33
-34 -20
-34 -21
20 21 34
-35 -22
-35 -23
22 23 35
-36 -24
-36 -25
24 25 36
-37 -26
-37 -27
26 27 37
-38 -28
-38 -29
28 29 38
-39 31
-39 32
-31 -32 39
-40 33
-40 34
-33 -34 40
-41 35
-41 36
-35 -36 41
-42 37
-42 38
-37 -38 42
-43 39
-43 40
-39 -40 43
-44 41
-44 42
-41 -42 44
-45 43
-45 44
-43 -44 45
-46 -30
-46 45
30 -45 46
-47 -13
-47 14
13 -14 47
-48 13
-48 -14
-13 14 48
-49 -47
-49 -48
47 48 49
-50 13
-50 14
-13 -14 50
-51 -13
-51 -49
13 49 51
-52 13
-52 49
-13 -49 52
-53 -51
-53 -52
51 52 53
-54 13
-54 -49
-13 49 54
-55 -50
-55 -54
50 54 55
-56 -14
-56 15
14 -15 56
-57 14
-57 -15
-14 15 57
-58 -56
-58 -57
56 57 58
-59 14
-59 15
-14 -15 59
-60 55
-60 -58
-55 58 60
-61 -55
-61 58
55 -58 61
-62 -60
-62 -61
60 61 62
-63 -55
-63 -58
55 58 63
-64 -59
-64 -63
59 63 64
-65 -15
-65 16
15 -16 65
-66 15
-66 -16
-15 16 66
-67 -65
-67 -66
65 66 67
-68 15
-68 16
-15 -16 68
-69 64
-69 -67
-64 67 69
-70 -64
-70 67
64 -67 70
-71 -69
-71 -70
69 70 71
-72 -64
-72 -67
64 67 72
-73 -68
-73 -72
68 72 73
-74 -16
-74 17
16 -17 74
-75 16
-75 -17
-16 17 75
-76 -74
-76 -75
74 75 76
-77 16
-77 17
-16 -17 77
-78 73
-78 -76
-73 76 78
-79 -73
-79 76
73 -76 79
-80 -78
-80 -79
78 79 80
-81 -73
-81 -76
73 76 81
-82 -77
-82 -81
77 81 82
-83 -17
-83 18
17 -18 83
-84 17
-84 -18
-17 18 84
-85 -83
-85 -84
83 84 85
-86 17
-86 18
-17 -18 86
-87 82
-87 -85
-82 85 87
-88 -82
-88 85
82 -85 88
-89 -87
-89 -88
87 88 89
-90 -82
-90 -85
82 85 90
-91 -86
-91 -90
86 90 91
-92 -18
-92 19
18 -19 92
-93 18
-93 -19
-18 19 93
-94 -92
-94 -93
92 93 94
-95 18
-95 19
-18 -19 95
-96 91
-96 -94
-91 94 96
-97 -91
-97 94
91 -94 97
-98 -96
-98 -97
96 97 98
-99 -91
-99 -94
91 94 99
-100 -95
-100 -99
95 99 100
-101 -19
-101 20
19 -20 101
-102 19
-102 -20
-19 20 102
-103 -101
-103 -102
101 102 103
-104 19
-104 20
-19 -20 104
-105 100
-105 -103
-100 103 105
-106 -100
-106 103
100 -103 106
-107 -105
-107 -106
105 106 107
-108 -100
-108 -103
100 103 108
-109 -104
-109 -108
104 108 109
-110 -20
-110 21
20 -21 110
-111 20
-111 -21
-20 21 111
-112 -110
-112 -111
110 111 112
-113 20
-113 21
-20 -21 113
-114 109
-114 -112
-109 112 114
-115 -109
-115 112
109 -112 115
-116 -114
-116 -115
114 115 116
-117 -109
-117 -112
109 112 117
-118 -113
-118 -117
113 117 118
-119 -21
-119 22
21 -22 119
-120 21
-120 -22
-21 22 120
-121 -119
-121 -120
119 120 121
-122 21
-122 22
-21 -22 122
-123 118
-123 -121
-118 121 123
-124 -118
-124 121
118 -121 124
-125 -123
-125 -124
123 124 125
-126 -118
-126 -121
118 121 126
-127 -122
-127 -126
122 126 127
-128 -22
-128 23
22 -23 128
-129 22
-129 -23
-22 23 129
-130 -128
-130 -129
128 129 130
-131 22
-131 23
-22 -23 131
-132 127
-132 -130
-127 130 132
-133 -127
-133 130
127 -130 133
-134 -132
-134 -133
132 133 134
-135 -127
-135 -130
127 130 135
-136 -131
-136 -135
131 135 136
-137 -23
-137 24
23 -24 137
-138 23
-138 -24
-23 24 138
-139 -137
-139 -138
137 138 139
-140 23
-140 24
-23 -24 140
-141 136
-141 -139
-136 139 141
-142 -136
-142 139
136 -139 142
-143 -141
-143 -142
141 142 143
-144 -136
-144 -139
136 139 144
-145 -140
-145 -144
140 144 145
-146 -24
-146 25
24 -25 146
-147 24
-147 -25
-24 25 147
-148 -146
-148 -147
146 147 148
-149 24
-149 25
-24 -25 149
-150 145
-150 -148
-145 148 150
-151 -145
-151 148
145 -148 151
-152 -150
-152 -151
150 151 152
-153 -145
-153 -148
145 148 153
-154 -149
-154 -153
149 153 154
-155 -25
-155 26
25 -26 155
-156 25
-156 -26
-25 26 156
-157 -155
-157 -156
155 156 157
-158 25
-158 26
-25 -26 158
-159 154
-159 -157
-154 157 159
-160 -154
-160 157
154 -157 160
-161 -159
-161 -160
159 160 161
-162 -154
-162 -157
154 157 162
-163 -158
-163 -162
158 162 163
-164 -26
-164 27
26 -27 164
-165 26
-165 -27
-26 27 165
-166 -164
-166 -165
164 165 166
-167 26
-167 27
-26 -27 167
-168 163
-168 -166
-163 166 168
-169 -163
-169 166
163 -166 169
-170 -168
-170 -169
168 169 170
-171 -163
-171 -166
163 166 171
-172 -167
-172 -171
167 171 172
-173 -27
-173 28
27 -28 173
-174 27
-174 -28
-27 28 174
-175 -173
-175 -174
173 174 175
-176 27
-176 28
-27 -28 176
-177 172
-177 -175
-172 175 177
-178 -172
-178 175
172 -175 178
-179 -177
-179 -178
177 178 179
-180 -172
-180 -175
172 175 180
-181 -176
-181 -180
176 180 181
-182 -28
-182 29
28 -29 182
-183 28
-183 -29
-28 29 183
-184 -182
-184 -183
182 183 184
-185 28
-185 29
-28 -29 185
-186 181
-186 -184
-181 184 186
-187 -181
-187 184
181 -184 187
-188 -186
-188 -187
186 187 188
-189 -181
-189 -184
181 184 189
-190 -185
-190 -189
185 189 190
-191 -29
-191 30
29 -30 191
-192 29
-192 -30
-29 30 192
-193 -191
-193 -192
191 192 193
-194 29
-194 30
-29 -30 194
-195 190
-195 -193
-190 193 195
-196 -190
-196 193
190 -193 196
-197 -195
-197 -196
195 196 197
-198 -190
-198 -193
190 193 198
-199 -194
-199 -198
194 198 199
-200 13
-200 -53
-13 53 200
-201 -13
-201 15
13 -15 201
-202 -200
-202 -201
200 201 202
-203 13
-203 -62
-13 62 203
-204 -13
-204 16
13 -16 204
-205 -203
-205 -204
203 204 205
-206 13
-206 -71
-13 71 206
-207 -13
-207 17
13 -17 207
-208 -206
-208 -207
206 207 208
-209 13
-209 -80
-13 80 209
-210 -13
-210 18
13 -18 210
-211 -209
-211 -210
209 210 211
-212 13
-212 -89
-13 89 212
-213 -13
-213 19
13 -19 213
-214 -212
-214 -213
212 213 214
-215 13
-215 -98
-13 98 215
-216 -13
-216 20
13 -20 216
-217 -215
-217 -216
215 216 217
-218 13
-218 -107
-13 107 218
-219 -13
-219 21
13 -21 219
-220 -218
-220 -219
218 219 220
-221 13
-221 -116
-13 116 221
-222 -13
-222 22
13 -22 222
-223 -221
-223 -222
221 222 223
-224 13
-224 -125
-13 125 224
-225 -13
-225 23
13 -23 225
-226 -224
-226 -225
224 225 226
-227 13
-227 -134
-13 134 227
-228 -13
-228 24
13 -24 228
-229 -227
-229 -228
227 228 229
-230 13
-230 -143
-13 143 230
-231 -13
-231 25
13 -25 231
-232 -230
-232 -231
230 231 232
-233 13
-233 -152
-13 152 233
-234 -13
-234 26
13 -26 234
-235 -233
-235 -234
233 234 235
-236 13
-236 -161
-13 161 236
-237 -13
-237 27
13 -27 237
-238 -236
-238 -237
236 237 238
-239 13
-239 -170
-13 170 239
-240 -13
-240 28
13 -28 240
-241 -239
-241 -240
239 240 241
-242 13
-242 -179
-13 179 242
-243 -13
-243 29
13 -29 243
-244 -242
-244 -243
242 243 244
-245 13
-245 -188
-13 188 245
-246 -13
-246 30
13 -30 246
-247 -245
-247 -246
245 246 247
-248 13
-248 -197
-13 197 248
-249 1
-249 46
-1 -46 249
-250 -46
-250 47
46 -47 250
-251 -249
-251 -250
249 250 251
-252 2
-252 46
-2 -46 252
-253 -46
-253 -202
46 202 253
-254 -252
-254 -253
252 253 254
-255 3
-255 46
-3 -46 255
-256 -46
-256 -205
46 205 256
-257 -255
-257 -256
255 256 257
-258 4
-258 46
-4 -46 258
-259 -46
-259 -208
46 208 259
-260 -258
-260 -259
258 259 260
-261 5
-261 46
-5 -46 261
-262 -46
-262 -211
46 211 262
-263 -261
-263 -262
261 262 263
-264 6
-264 46
-6 -46 264
-265 -46
-265 -214
46 214 265
-266 -264
-266 -265
264 265 266
-267 7
-267 46
-7 -46 267
-268 -46
-268 -217
46 217 268
-269 -267
-269 -268
267 268 269
-270 8
-270 46
-8 -46 270
-271 -46
-271 -220
46 220 271
-272 -270
-272 -271
270 271 272
-273 9
-273 46
-9 -46 273
-274 -46
-274 -223
46 223 274
-275 -273
-275 -274
273 274 275
-276 10
-276 46
-10 -46 276
-277 -46
-277 -226
46 226 277
-278 -276
-278 -277
276 277 278
-279 11
-279 46
-11 -46 279
-280 -46
-280 -229
46 229 280
-281 -279
-281 -280
279 280 281
-282 12
-282 46
-12 -46 282
-283 -46
-283 -232
46 232 283
-284 -282
-284 -283
282 283 284
-285 -46
-285 -235
46 235 285
-286 -46
-286 -238
46 238 286
-287 -46
-287 -241
46 241 287
-288 -46
-288 -244
46 244 288
-289 -46
-289 -247
46 247 289
-290 -46
-290 248
46 -248 290
-291 -30
-291 199
30 -199 291
-292 13
-292 -291
-13 291 292
292
